data/mip_solutions/furman_sahinidis/transshipment/28sp-as1_cplex.sol
Elapsed time: 0.0497081279755
Nodes explored: 0
Upper bound: 30.0
Lower bound: 30.0
y[0,0]=1
y[0,1]=1
y[1,0]=1
y[1,1]=1
y[1,12]=1
y[2,12]=1
y[3,12]=1
y[4,12]=1
y[5,12]=1
y[6,12]=1
y[7,0]=1
y[8,12]=1
y[9,12]=1
y[10,12]=1
y[11,12]=1
y[12,12]=1
y[13,0]=1
y[14,12]=1
y[15,12]=1
y[16,1]=1
y[16,2]=1
y[16,3]=1
y[16,4]=1
y[16,5]=1
y[16,6]=1
y[16,7]=1
y[16,8]=1
y[16,9]=1
y[16,10]=1
y[16,11]=1
q[0,0,13]=2100.0
q[0,1,1]=900.0
q[0,1,3]=60.0
q[0,1,4]=300.0
q[0,1,6]=120.0
q[0,1,7]=1020.0
q[1,0,4]=200.0
q[1,0,5]=200.0
q[1,0,6]=80.0
q[1,0,7]=1120.0
q[1,0,8]=1320.0
q[1,0,9]=80.0
q[1,0,10]=200.0
q[1,0,11]=200.0
q[1,0,12]=80.0
q[1,0,13]=8.34
q[1,1,7]=650.0
q[1,12,14]=3061.66
q[2,12,14]=6.5
q[3,12,14]=7.5
q[4,12,14]=6.5
q[5,12,14]=6.8
q[6,12,14]=6.9
q[7,0,13]=6.36
q[8,12,14]=6.5
q[9,12,14]=7.5
q[10,12,14]=6.5
q[11,12,14]=6.8
q[12,12,14]=6.9
q[13,0,13]=5.3
q[14,12,14]=7.3
q[15,12,14]=7.4
q[16,1,0]=3600.0
q[16,1,1]=900.0
q[16,1,2]=540.0
q[16,1,5]=300.0
q[16,1,7]=10.0
q[16,2,0]=5.0
q[16,2,1]=3.0
q[16,2,2]=0.9
q[16,2,3]=0.1
q[16,2,4]=0.5
q[16,2,5]=0.5
q[16,3,0]=4.5
q[16,3,1]=3.0
q[16,3,2]=0.9
q[16,3,3]=0.1
q[16,3,4]=0.5
q[16,4,0]=5.5
q[16,4,1]=3.0
q[16,4,2]=0.9
q[16,4,3]=0.1
q[16,5,0]=5.7
q[16,5,1]=3.0
q[16,5,2]=0.9
q[16,5,3]=0.1
q[16,5,4]=0.5
q[16,5,5]=0.5
q[16,5,6]=0.2
q[16,6,0]=4.7
q[16,6,1]=3.0
q[16,6,2]=0.9
q[16,7,0]=5.0
q[16,7,1]=3.0
q[16,7,2]=0.9
q[16,7,3]=0.1
q[16,7,4]=0.5
q[16,7,5]=0.5
q[16,8,0]=4.5
q[16,8,1]=3.0
q[16,8,2]=0.9
q[16,8,3]=0.1
q[16,8,4]=0.5
q[16,9,0]=5.5
q[16,9,1]=3.0
q[16,9,2]=0.9
q[16,9,3]=0.1
q[16,10,0]=5.7
q[16,10,1]=3.0
q[16,10,2]=0.9
q[16,10,3]=0.1
q[16,10,4]=0.5
q[16,10,5]=0.5
q[16,10,6]=0.2
q[16,11,0]=4.7
q[16,11,1]=3.0
q[16,11,2]=0.9
r[0,3]=270.0
r[0,4]=240.0
r[0,5]=90.0
r[0,6]=240.0
r[0,7]=180.0
r[0,9]=990.0
r[0,10]=1050.0
r[0,11]=1200.0
r[0,12]=1350.0
r[0,13]=1410.0
r[1,3]=405.0
r[1,4]=450.0
r[1,5]=475.0
r[1,6]=500.0
r[1,7]=510.0
r[1,9]=165.0
r[1,10]=175.0
r[1,11]=200.0
r[1,12]=225.0
r[1,13]=235.0
r[1,14]=2611.66
r[2,12]=0.5
r[2,13]=0.7
r[2,14]=6.0
r[3,11]=0.5
r[3,12]=1.0
r[3,13]=1.2
r[3,14]=6.5
r[4,13]=0.2
r[4,14]=5.5
r[5,12]=0.5
r[5,13]=0.7
r[5,14]=6.0
r[6,10]=0.2
r[6,11]=0.7
r[6,12]=1.2
r[6,13]=1.4
r[6,14]=6.7
r[8,12]=0.5
r[8,13]=0.7
r[8,14]=6.0
r[9,11]=0.5
r[9,12]=1.0
r[9,13]=1.2
r[9,14]=6.5
r[10,13]=0.2
r[10,14]=5.5
r[11,12]=0.5
r[11,13]=0.7
r[11,14]=6.0
r[12,10]=0.2
r[12,11]=0.7
r[12,12]=1.2
r[12,13]=1.4
r[12,14]=6.7
r[14,11]=0.5
r[14,12]=1.0
r[14,13]=1.2
r[14,14]=6.5
r[15,10]=0.2
r[15,11]=0.7
r[15,12]=1.2
r[15,13]=1.4
r[15,14]=6.7
r[16,1]=1795.2
r[16,2]=865.2
r[16,3]=316.2
r[16,4]=315.4
r[16,5]=312.4
r[16,6]=10.4
r[16,7]=10.0
